130 5
10 10 10 10 10 

0 0 0 0 0 0 1 2 
0 0 0 0 0 0 2 3 6 
10 0 0 0 3 0 3 12 8 4 
8 0 0 0 10 0 1 5 
5 0 0 0 6 0 2 9 7 
10 0 0 0 6 0 2 9 7 
2 0 0 0 10 0 2 11 10 
3 0 0 0 9 0 1 9 
10 0 0 0 6 0 1 13 
7 0 0 0 9 0 1 13 
10 0 0 0 10 0 1 13 
1 0 0 0 6 0 1 13 
0 0 0 0 0 0 2 14 26 
0 0 0 0 0 0 1 15 
8 0 0 0 0 4 2 19 16 
6 0 0 0 0 10 3 18 17 105 
2 0 0 0 0 4 3 24 22 20 
10 0 0 0 0 7 3 24 21 20 
1 0 0 0 0 9 2 24 20 
4 0 0 0 0 8 1 23 
7 0 0 0 0 7 1 23 
8 0 0 0 0 9 1 23 
4 0 0 0 0 7 1 25 
8 0 0 0 0 10 1 25 
0 0 0 0 0 0 1 38 
0 0 0 0 0 0 3 27 30 36 
9 0 0 5 0 0 2 32 28 
2 0 0 4 0 0 1 29 
7 0 0 8 0 0 2 33 31 
10 0 0 4 0 0 1 32 
2 0 0 7 0 0 2 35 34 
3 0 0 10 0 0 2 35 34 
5 0 0 10 0 0 2 34 77 
1 0 0 8 0 0 1 37 
4 0 0 9 0 0 1 37 
7 0 0 10 0 0 1 37 
0 0 0 0 0 0 1 38 
0 0 0 0 0 0 3 39 51 73 
0 0 0 0 0 0 1 40 
1 0 5 0 0 0 2 42 41 
4 0 4 0 0 0 3 46 44 43 
1 0 6 0 0 0 2 46 43 
5 0 9 0 0 0 2 47 45 
2 0 7 0 0 0 2 49 47 
6 0 9 0 0 0 2 49 48 
7 0 8 0 0 0 2 49 48 
3 0 7 0 0 0 1 48 
7 0 10 0 0 0 2 50 117 
5 0 10 0 0 0 1 50 
0 0 0 0 0 0 2 95 107 
0 0 0 0 0 0 1 52 
4 0 0 1 6 0 3 58 53 75 
3 0 0 6 6 0 1 54 
9 0 0 10 10 0 4 71 70 68 55 
1 0 0 10 7 0 2 69 56 
4 0 0 6 8 0 2 64 57 
2 0 0 10 7 0 4 67 66 65 59 
5 0 0 9 10 0 3 68 64 60 
4 0 0 9 5 0 2 63 60 
9 0 0 4 10 0 1 61 
2 0 0 9 6 0 1 62 
1 0 0 6 7 0 1 72 
3 0 0 10 4 0 1 72 
7 0 0 10 10 0 1 72 
1 0 0 5 10 0 1 72 
4 0 0 6 7 0 1 72 
10 0 0 9 6 0 1 72 
10 0 0 10 7 0 1 72 
8 0 0 5 6 0 1 72 
1 0 0 10 8 0 1 72 
5 0 0 5 10 0 1 72 
0 0 0 0 0 0 1 119 
0 0 0 0 0 0 1 74 
8 3 3 0 0 0 1 75 
2 8 6 0 0 0 2 77 76 
10 7 4 0 0 0 1 78 
6 9 7 0 0 0 1 78 
10 9 4 0 0 0 2 81 79 
9 9 5 0 0 0 2 83 80 
10 10 10 0 0 0 2 90 82 
8 5 10 0 0 0 2 83 82 
9 10 10 0 0 0 3 86 85 84 
6 6 10 0 0 0 5 93 92 89 88 87 
2 10 6 0 0 0 4 93 92 89 87 
9 10 10 0 0 0 4 93 92 88 87 
2 7 9 0 0 0 4 93 89 88 87 
7 7 10 0 0 0 1 91 
1 8 9 0 0 0 1 91 
6 5 9 0 0 0 1 91 
1 5 6 0 0 0 1 92 
4 5 8 0 0 0 1 94 
2 9 6 0 0 0 1 94 
9 8 8 0 0 0 1 94 
0 0 0 0 0 0 1 119 
0 0 0 0 0 0 4 96 97 98 105 
8 0 0 0 3 0 1 99 
5 0 0 0 10 0 1 99 
8 0 0 0 8 0 3 104 102 101 
5 0 0 0 7 0 2 104 100 
2 0 0 0 6 0 1 101 
3 0 0 0 7 0 1 103 
8 0 0 0 10 0 1 103 
10 0 0 0 4 0 1 106 
8 0 0 0 10 0 1 106 
3 0 0 0 10 0 1 106 
0 0 0 0 0 0 1 119 
0 0 0 0 0 0 2 108 111 
5 4 0 0 0 0 1 109 
2 7 0 0 0 0 1 110 
6 4 0 0 0 0 3 115 114 113 
8 10 0 0 0 0 2 114 112 
2 6 0 0 0 0 1 113 
5 10 0 0 0 0 1 116 
5 8 0 0 0 0 1 117 
3 7 0 0 0 0 1 116 
1 9 0 0 0 0 1 118 
2 10 0 0 0 0 1 118 
0 0 0 0 0 0 1 119 
0 0 0 0 0 0 3 120 121 124 
9 0 7 0 0 0 2 126 123 
10 0 5 0 0 0 1 122 
7 0 5 0 0 0 2 129 125 
10 0 7 0 0 0 2 129 128 
8 0 10 0 0 0 2 129 128 
9 0 10 0 0 0 1 127 
1 0 6 0 0 0 1 127 
8 0 6 0 0 0 1 128 
10 0 9 0 0 0 1 130 
10 0 10 0 0 0 1 130 
0 0 0 0 0 0 0 
